db/data/30495710923617179772644623998667732095.z3.out
sat
-------------------
146.752267853
